p cnf 30 48
28 1 -2 0
28 -1 2 0
29 2 -3 0
29 -2 3 0
30 3 1 0
30 -3 -1 0
-28 4 -5 0
-28 -4 5 0
29 5 -6 0
29 -5 6 0
30 6 4 0
30 -6 -4 0
28 7 -8 0
28 -7 8 0
-29 8 -9 0
-29 -8 9 0
30 9 7 0
30 -9 -7 0
-28 10 -11 0
-28 -10 11 0
-29 11 -12 0
-29 -11 12 0
30 12 10 0
30 -12 -10 0
28 13 -14 0
28 -13 14 0
29 14 -15 0
29 -14 15 0
-30 15 13 0
-30 -15 -13 0
-28 16 -17 0
-28 -16 17 0
29 17 -18 0
29 -17 18 0
-30 18 16 0
-30 -18 -16 0
28 19 -20 0
28 -19 20 0
-29 20 -21 0
-29 -20 21 0
-30 21 19 0
-30 -21 -19 0
-28 22 -23 0
-28 -22 23 0
-29 23 -24 0
-29 -23 24 0
-30 24 22 0
-30 -24 -22 0
